\ Model QCP
\ LP format - for model browsing. Use MPS format to capture full model detail.
Minimize
  z + 4 y
Subject To
 Cut_0: z + [ 0.0269642026964203 y ^2 ] >= 4899.634123663413
 Cut_1: z + [ 8.169491525423728 y ^2 ] >= 31171.96610169491
 Cut_2: z + [ 1.791519434628972 y ^2 ] >= 11207.53710247349
 Cut_3: z + [ 0.5664739884393064 y ^2 ] >= 7009.306358381503
 Cut_4: z + [ 0.3472668810289389 y ^2 ] >= 6213.836012861737
Bounds
 4731 <= z <= 6688
 54.74486277268398 <= y <= 79.08223567907018
End
